32      4       
15      15      11      17      
0       0       0       0       0       3       2       4       6       
4       12      15      1       1       2       3       5       
10      4       7       2       9       2       7       10      
9       15      15      11      16      2       7       10      
1       15      15      11      7       3       8       9       10      
6       1       4       11      17      1       7       
5       13      7       7       1       2       8       9       
7       15      6       9       15      1       11      
7       3       12      11      17      1       11      
7       15      10      11      15      1       11      
8       15      15      6       17      2       12      14      
5       9       10      6       17      1       13      
6       11      7       5       9       2       15      16      
2       15      15      11      6       2       16      17      
2       8       4       2       17      2       17      23      
8       15      5       11      17      4       19      20      21      23      
9       15      10      9       15      1       18      
3       15      15      5       17      3       19      20      21      
10      15      15      11      17      2       22      24      
5       15      15      11      14      3       24      25      29      
2       8       15      9       10      3       24      25      29      
4       14      12      8       17      3       25      28      29      
1       3       14      11      4       2       24      29      
7       12      5       2       14      3       26      27      28      
4       7       8       11      6       2       26      27      
3       6       15      11      17      2       30      31      
10      12      12      1       3       2       30      31      
10      15      15      11      17      2       30      31      
5       15      11      11      17      2       30      31      
5       15      15      11      17      1       32      
4       5       14      11      17      1       32      
0       0       0       0       0       0       
